p td 50 75
23 37
23 36
23 44
37 6
37 41
25 31
25 43
25 29
31 4
31 17
9 34
9 44
9 12
34 16
34 27
2 18
2 26
2 38
18 19
18 12
16 35
16 6
35 26
35 33
29 36
29 10
36 45
15 32
15 5
15 14
32 27
32 3
26 8
28 41
28 48
28 43
41 22
0 20
0 24
0 39
20 49
20 24
10 21
10 19
21 27
21 30
8 40
8 30
40 42
40 4
19 44
3 38
3 22
38 1
11 14
11 13
11 42
14 1
4 48
17 46
17 49
46 7
46 6
1 33
33 43
7 24
7 5
22 45
45 42
48 12
13 49
13 47
5 47
47 39
30 39
